(set-info :smt-lib-version 2.6)
(set-logic UFNIRA)
(set-info :source |
Generated by: Geoff Sutcliffe
Generated on: 2026-03-11
Generator: TPTPWorld
Application: Benchmarking automated theorem provers
Time limit: 120.0

These benchmarks are translations from the TPTP Library (Thousands of
Problems for Theorem Provers), see http://www.cs.miami.edu/~tptp/

The TPTP is maintained by Geoff Sutcliffe, and he contributed this
selection of benchmarks to SMT-LIB.  They were exported from the
v9.2.1 realease of TPTP.
|)
(set-info :category "industrial")
(set-info :status unknown)
; SZS status Success
(declare-sort $$unsorted 0)
(declare-sort tptp.set_0 0)
(declare-fun tptp.mem0 (Int tptp.set_0) Bool)
(declare-fun tptp.min_int () Int)
(declare-fun tptp.max_int () Int)
(assert (= tptp.min_int (- 2147483648)))
(assert (= tptp.max_int 2147483647))
(declare-fun tptp.g_s0_0 () tptp.set_0)
(declare-fun tptp.g_s1_1 () Int)
(declare-fun tptp.g_s2_2 () Int)
(declare-fun tptp.g_s3_3 () Int)
(declare-fun tptp.g_s4_4 () tptp.set_0)
(declare-fun tptp.g_s5_5 () Int)
(declare-fun tptp.g_s6_6 () Int)
(declare-fun tptp.g_s7_7 () Int)
(declare-fun tptp.g_s8_8 () tptp.set_0)
(declare-fun tptp.g_s9_9 () Int)
(declare-fun tptp.g_s10_10 () Int)
(declare-fun tptp.g_s11_11 () Int)
(declare-fun tptp.g_s12_12 () tptp.set_0)
(declare-fun tptp.g_s13_13 () Int)
(declare-fun tptp.g_s14_14 () Int)
(declare-fun tptp.g_s15_15 () tptp.set_0)
(declare-fun tptp.g_s16_16 () Int)
(declare-fun tptp.g_s17_17 () Int)
(declare-fun tptp.g_s18_18 () tptp.set_0)
(declare-fun tptp.g_s19_19 () Int)
(declare-fun tptp.g_s20_20 () Int)
(declare-fun tptp.g_s21_21 () Int)
(declare-fun tptp.g_s22_22 () tptp.set_0)
(declare-fun tptp.g_s23_23 () Int)
(declare-fun tptp.g_s24_24 () Int)
(declare-fun tptp.g_s25_25 () tptp.set_0)
(declare-fun tptp.g_s26_26 () Int)
(declare-fun tptp.g_s27_27 () Int)
(declare-fun tptp.g_s28_28 () Int)
(declare-fun tptp.g_s29_29 () tptp.set_0)
(declare-sort tptp.set_2 0)
(declare-fun tptp.set_2_empty () tptp.set_2)
(declare-fun tptp.set_2_insert (tptp.set_2) tptp.set_2)
(declare-fun tptp.mem2 (Int Int tptp.set_2) Bool)
(declare-fun tptp.g_s30_30 () tptp.set_0)
(declare-fun tptp.g_s31_31 () Int)
(declare-fun tptp.g_s32_32 () Int)
(declare-fun tptp.g_s33_33 () Int)
(declare-fun tptp.g_s34_34 () tptp.set_0)
(declare-fun tptp.g_s35_35 () tptp.set_0)
(declare-fun tptp.g_s36_36 () tptp.set_0)
(declare-fun tptp.g_s37_37 () tptp.set_0)
(declare-fun tptp.g_s38_38 () tptp.set_0)
(declare-fun tptp.g_s39_39 () tptp.set_0)
(declare-fun tptp.g_s40_40 () tptp.set_0)
(declare-fun tptp.g_s41_41 () Int)
(declare-fun tptp.g_s42_42 () tptp.set_2)
(declare-fun tptp.g_s43_43 () tptp.set_0)
(declare-fun tptp.g_s44_44 () tptp.set_2)
(declare-fun tptp.g_s45_45 () tptp.set_2)
(declare-fun tptp.g_s46_46 () tptp.set_0)
(declare-fun tptp.g_s47_47 () Int)
(declare-fun tptp.g_s48_48 () tptp.set_2)
(declare-fun tptp.g_s49_49 () tptp.set_0)
(declare-fun tptp.g_s50_50 () tptp.set_2)
(declare-fun tptp.g_s51_51 () Int)
(declare-fun tptp.g_s52_52 () tptp.set_0)
(declare-fun tptp.g_s53_53 () Int)
(declare-fun tptp.g_s54_54 () tptp.set_2)
(declare-fun tptp.g_s55_55 () tptp.set_0)
(declare-fun tptp.g_s56_56 () Int)
(declare-fun tptp.g_s57_57 () tptp.set_2)
(declare-fun tptp.g_s58_58 () tptp.set_0)
(declare-fun tptp.g_s59_59 () Int)
(declare-fun tptp.g_s60_60 () tptp.set_2)
(declare-sort tptp.set_3 0)
(declare-fun tptp.set_3_empty () tptp.set_3)
(declare-fun tptp.set_3_insert (tptp.set_3) tptp.set_3)
(declare-fun tptp.g_s61_72 () tptp.set_3)
(declare-fun tptp.mem3 (Int Int Int tptp.set_3) Bool)
(declare-fun tptp.g_s62_73 () tptp.set_2)
(declare-fun tptp.g_s63_74 () tptp.set_2)
(declare-sort tptp.set_4 0)
(declare-fun tptp.set_4_empty () tptp.set_4)
(declare-fun tptp.set_4_insert (tptp.set_4) tptp.set_4)
(declare-fun tptp.mem4 (Int tptp.set_0 tptp.set_4) Bool)
(declare-fun tptp.g_s64_75 () tptp.set_4)
(declare-fun tptp.g_s65_76 () tptp.set_2)
(declare-fun tptp.g_s75_61 () tptp.set_3)
(declare-fun tptp.g_s76_67 () tptp.set_2)
(declare-fun tptp.g_s78_64 () tptp.set_2)
(declare-fun tptp.g_s79_65 () tptp.set_2)
(declare-fun tptp.g_s80_66 () tptp.set_2)
(declare-fun tptp.g_s82_62 () tptp.set_3)
(declare-fun tptp.g_s83_63 () tptp.set_0)
(declare-fun tptp.g_s84_68 () tptp.set_3)
(declare-fun tptp.g_s68_1_77 () Int)
(declare-fun tptp.g_s69_1_78 () Int)
(declare-fun tptp.g_s70_1_79 () Int)
(declare-fun tptp.g_s71_1_80 () Int)
(declare-fun tptp.g_s90_81 () Int)
(assert (and (forall ((X_513 Int) (X_514 Int) (X_515 Int)) (=> (tptp.mem3 X_515 X_514 X_513 tptp.g_s61_72) (and (tptp.mem0 X_515 tptp.g_s40_40) (tptp.mem0 X_514 tptp.g_s43_43) (tptp.mem0 X_513 tptp.g_s52_52)))) (forall ((X_516 Int) (X_517 Int) (X_518 Int) (X_519 Int)) (=> (and (tptp.mem3 X_517 X_516 X_518 tptp.g_s61_72) (tptp.mem3 X_517 X_516 X_519 tptp.g_s61_72)) (= X_518 X_519)))))
(assert (and (forall ((X_520 Int) (X_521 Int)) (=> (tptp.mem2 X_521 X_520 tptp.g_s62_73) (and (tptp.mem0 X_521 tptp.g_s40_40) (tptp.mem0 X_520 tptp.g_s58_58)))) (forall ((X_522 Int) (X_523 Int) (X_524 Int)) (=> (and (tptp.mem2 X_522 X_523 tptp.g_s62_73) (tptp.mem2 X_522 X_524 tptp.g_s62_73)) (= X_523 X_524)))))
(assert (forall ((X_525 Int) (X_526 Int)) (=> (tptp.mem2 X_526 X_525 tptp.g_s63_74) (and (tptp.mem0 X_526 tptp.g_s40_40) (tptp.mem0 X_525 tptp.g_s55_55)))))
(assert (exists ((X_527 tptp.set_4)) (and (forall ((X_528 tptp.set_0) (X_529 Int)) (= (tptp.mem4 X_529 X_528 X_527) (tptp.mem4 X_529 X_528 tptp.g_s64_75))) (forall ((X_530 Int) (X_531 tptp.set_0) (X_532 tptp.set_0)) (=> (and (tptp.mem4 X_530 X_531 X_527) (tptp.mem4 X_530 X_532 X_527)) (forall ((X_533 Int)) (= (tptp.mem0 X_533 X_531) (tptp.mem0 X_533 X_532))))) (forall ((X_534 Int)) (= (tptp.mem0 X_534 tptp.g_s40_40) (exists ((X_535 tptp.set_0)) (tptp.mem4 X_534 X_535 X_527)))) (forall ((X_536 tptp.set_0)) (=> (exists ((X_537 Int)) (tptp.mem4 X_537 X_536 X_527)) (forall ((X_538 Int)) (=> (tptp.mem0 X_538 X_536) (tptp.mem0 X_538 tptp.g_s37_37))))))))
(assert (exists ((X_539 Int) (X_540 tptp.set_2)) (and (forall ((X_541 Int) (X_542 Int)) (= (tptp.mem2 X_542 X_541 X_540) (tptp.mem2 X_542 X_541 tptp.g_s65_76))) (forall ((X_543 Int) (X_544 Int) (X_545 Int)) (=> (and (tptp.mem2 X_543 X_544 X_540) (tptp.mem2 X_543 X_545 X_540)) (= X_544 X_545))) (forall ((X_546 Int)) (= (and (>= X_546 1) (<= X_546 X_539)) (exists ((X_547 Int)) (tptp.mem2 X_546 X_547 X_540)))) (forall ((X_548 Int)) (=> (exists ((X_549 Int)) (tptp.mem2 X_549 X_548 X_540)) (tptp.mem0 X_548 tptp.g_s55_55))))))
(assert (forall ((L_s66 Int)) (=> (tptp.mem0 L_s66 tptp.g_s40_40) (forall ((X_550 Int)) (= (exists ((X_551 Int)) (and (= X_551 L_s66) (tptp.mem2 X_551 X_550 tptp.g_s63_74))) (exists ((X_552 Int)) (and (forall ((X_553 tptp.set_0)) (=> (tptp.mem4 L_s66 X_553 tptp.g_s64_75) (tptp.mem0 X_552 X_553))) (tptp.mem2 X_552 X_550 tptp.g_s65_76))))))))
(assert (forall ((L_s66 Int)) (=> (tptp.mem0 L_s66 tptp.g_s40_40) (forall ((X_554 Int)) (=> (forall ((X_555 tptp.set_0)) (=> (tptp.mem4 L_s66 X_555 tptp.g_s64_75) (tptp.mem0 X_554 X_555))) (exists ((X_556 Int)) (tptp.mem2 X_554 X_556 tptp.g_s65_76)))))))
(assert (forall ((L_s66 Int)) (=> (tptp.mem0 L_s66 tptp.g_s40_40) (and (forall ((X_557 Int) (X_558 Int)) (=> (and (tptp.mem2 X_558 X_557 tptp.g_s65_76) (forall ((X_559 tptp.set_0)) (=> (tptp.mem4 L_s66 X_559 tptp.g_s64_75) (tptp.mem0 X_558 X_559)))) (and (>= X_558 0) (tptp.mem0 X_557 tptp.g_s55_55)))) (forall ((X_560 Int) (X_561 Int) (X_562 Int)) (=> (and (tptp.mem2 X_560 X_561 tptp.g_s65_76) (forall ((X_563 tptp.set_0)) (=> (tptp.mem4 L_s66 X_563 tptp.g_s64_75) (tptp.mem0 X_560 X_563))) (tptp.mem2 X_560 X_562 tptp.g_s65_76) (forall ((X_564 tptp.set_0)) (=> (tptp.mem4 L_s66 X_564 tptp.g_s64_75) (tptp.mem0 X_560 X_564)))) (= X_561 X_562))) (forall ((X_565 Int) (X_566 Int) (X_567 Int)) (=> (and (tptp.mem2 X_566 X_565 tptp.g_s65_76) (forall ((X_568 tptp.set_0)) (=> (tptp.mem4 L_s66 X_568 tptp.g_s64_75) (tptp.mem0 X_566 X_568))) (tptp.mem2 X_567 X_565 tptp.g_s65_76) (forall ((X_569 tptp.set_0)) (=> (tptp.mem4 L_s66 X_569 tptp.g_s64_75) (tptp.mem0 X_567 X_569)))) (= X_566 X_567)))))))
(assert (forall ((L_s66 Int)) (=> (and (tptp.mem0 L_s66 tptp.g_s40_40) (not (forall ((X_570 tptp.set_0)) (=> (forall ((X_571 Int)) (= (tptp.mem0 X_571 X_570) false)) (tptp.mem4 L_s66 X_570 tptp.g_s64_75))))) (forall ((X_572 tptp.set_0)) (=> (forall ((X_573 Int)) (= (tptp.mem0 X_573 X_572) (forall ((X_574 Int) (X_575 Int)) (=> (and (forall ((X_577 tptp.set_0)) (=> (tptp.mem4 L_s66 X_577 tptp.g_s64_75) (tptp.mem0 X_574 X_577))) (forall ((X_576 Int)) (=> (forall ((X_578 tptp.set_0)) (=> (tptp.mem4 L_s66 X_578 tptp.g_s64_75) (tptp.mem0 X_576 X_578))) (<= X_574 X_576))) (forall ((X_580 tptp.set_0)) (=> (tptp.mem4 L_s66 X_580 tptp.g_s64_75) (tptp.mem0 X_575 X_580))) (forall ((X_579 Int)) (=> (forall ((X_581 tptp.set_0)) (=> (tptp.mem4 L_s66 X_581 tptp.g_s64_75) (tptp.mem0 X_579 X_581))) (>= X_575 X_579)))) (and (>= X_573 X_574) (<= X_573 X_575)))))) (tptp.mem4 L_s66 X_572 tptp.g_s64_75))))))
(assert (and (forall ((X_5 Int)) (= (tptp.mem0 X_5 tptp.g_s0_0) (or (= X_5 tptp.g_s1_1) (= X_5 tptp.g_s2_2) (= X_5 tptp.g_s3_3)))) (not (= tptp.g_s1_1 tptp.g_s2_2)) (not (= tptp.g_s2_2 tptp.g_s3_3))))
(assert (and (forall ((X_6 Int)) (= (tptp.mem0 X_6 tptp.g_s4_4) (or (= X_6 tptp.g_s5_5) (= X_6 tptp.g_s6_6) (= X_6 tptp.g_s7_7)))) (not (= tptp.g_s5_5 tptp.g_s6_6)) (not (= tptp.g_s6_6 tptp.g_s7_7))))
(assert (and (not (forall ((X_33 Int)) (= (tptp.mem0 X_33 tptp.g_s34_34) false))) (forall ((X_36 Int)) (=> (tptp.mem0 X_36 tptp.g_s34_34) true)) (exists ((X_34 Int) (X_35 tptp.set_2)) (and (exists ((X_37 tptp.set_2)) (and (forall ((X_38 Int) (X_39 Int)) (= (tptp.mem2 X_39 X_38 X_37) (tptp.mem2 X_39 X_38 X_35))) (forall ((X_40 Int) (X_41 Int) (X_42 Int)) (=> (and (tptp.mem2 X_40 X_41 X_37) (tptp.mem2 X_40 X_42 X_37)) (= X_41 X_42))) (forall ((X_43 Int)) (= (and (>= X_43 1) (<= X_43 X_34)) (exists ((X_44 Int)) (tptp.mem2 X_43 X_44 X_37)))) (forall ((X_45 Int)) (=> (exists ((X_46 Int)) (tptp.mem2 X_46 X_45 X_37)) (tptp.mem0 X_45 tptp.g_s34_34))))) (forall ((X_47 Int)) (=> (tptp.mem0 X_47 tptp.g_s34_34) (exists ((X_48 Int)) (tptp.mem2 X_48 X_47 X_35)))) (forall ((X_49 Int) (X_50 Int) (X_51 Int)) (=> (and (tptp.mem2 X_50 X_49 X_35) (tptp.mem2 X_51 X_49 X_35)) (= X_50 X_51)))))))
(assert (and (not (forall ((X_52 Int)) (= (tptp.mem0 X_52 tptp.g_s35_35) false))) (forall ((X_55 Int)) (=> (tptp.mem0 X_55 tptp.g_s35_35) true)) (exists ((X_53 Int) (X_54 tptp.set_2)) (and (exists ((X_56 tptp.set_2)) (and (forall ((X_57 Int) (X_58 Int)) (= (tptp.mem2 X_58 X_57 X_56) (tptp.mem2 X_58 X_57 X_54))) (forall ((X_59 Int) (X_60 Int) (X_61 Int)) (=> (and (tptp.mem2 X_59 X_60 X_56) (tptp.mem2 X_59 X_61 X_56)) (= X_60 X_61))) (forall ((X_62 Int)) (= (and (>= X_62 1) (<= X_62 X_53)) (exists ((X_63 Int)) (tptp.mem2 X_62 X_63 X_56)))) (forall ((X_64 Int)) (=> (exists ((X_65 Int)) (tptp.mem2 X_65 X_64 X_56)) (tptp.mem0 X_64 tptp.g_s35_35))))) (forall ((X_66 Int)) (=> (tptp.mem0 X_66 tptp.g_s35_35) (exists ((X_67 Int)) (tptp.mem2 X_67 X_66 X_54)))) (forall ((X_68 Int) (X_69 Int) (X_70 Int)) (=> (and (tptp.mem2 X_69 X_68 X_54) (tptp.mem2 X_70 X_68 X_54)) (= X_69 X_70)))))))
(assert (and (not (forall ((X_71 Int)) (= (tptp.mem0 X_71 tptp.g_s36_36) false))) (forall ((X_74 Int)) (=> (tptp.mem0 X_74 tptp.g_s36_36) true)) (exists ((X_72 Int) (X_73 tptp.set_2)) (and (exists ((X_75 tptp.set_2)) (and (forall ((X_76 Int) (X_77 Int)) (= (tptp.mem2 X_77 X_76 X_75) (tptp.mem2 X_77 X_76 X_73))) (forall ((X_78 Int) (X_79 Int) (X_80 Int)) (=> (and (tptp.mem2 X_78 X_79 X_75) (tptp.mem2 X_78 X_80 X_75)) (= X_79 X_80))) (forall ((X_81 Int)) (= (and (>= X_81 1) (<= X_81 X_72)) (exists ((X_82 Int)) (tptp.mem2 X_81 X_82 X_75)))) (forall ((X_83 Int)) (=> (exists ((X_84 Int)) (tptp.mem2 X_84 X_83 X_75)) (tptp.mem0 X_83 tptp.g_s36_36))))) (forall ((X_85 Int)) (=> (tptp.mem0 X_85 tptp.g_s36_36) (exists ((X_86 Int)) (tptp.mem2 X_86 X_85 X_73)))) (forall ((X_87 Int) (X_88 Int) (X_89 Int)) (=> (and (tptp.mem2 X_88 X_87 X_73) (tptp.mem2 X_89 X_87 X_73)) (= X_88 X_89)))))))
(assert (forall ((X_90 Int)) (=> (tptp.mem0 X_90 tptp.g_s37_37) (and (>= X_90 0) (<= X_90 tptp.max_int)))))
(assert (not (forall ((X_91 Int)) (= (tptp.mem0 X_91 tptp.g_s37_37) false))))
(assert (forall ((X_92 Int)) (= (tptp.mem0 X_92 tptp.g_s37_37) (forall ((X_93 Int) (X_94 Int)) (=> (and (tptp.mem0 X_93 tptp.g_s37_37) (forall ((X_95 Int)) (=> (tptp.mem0 X_95 tptp.g_s37_37) (<= X_93 X_95))) (tptp.mem0 X_94 tptp.g_s37_37) (forall ((X_96 Int)) (=> (tptp.mem0 X_96 tptp.g_s37_37) (>= X_94 X_96)))) (and (>= X_92 X_93) (<= X_92 X_94)))))))
(assert (not (forall ((X_97 Int)) (=> (= X_97 tptp.max_int) (tptp.mem0 X_97 tptp.g_s37_37)))))
(assert (forall ((X_98 Int)) (=> (tptp.mem0 X_98 tptp.g_s38_38) (and (>= X_98 0) (<= X_98 tptp.max_int)))))
(assert (not (forall ((X_99 Int)) (= (tptp.mem0 X_99 tptp.g_s38_38) false))))
(assert (forall ((X_100 Int)) (= (tptp.mem0 X_100 tptp.g_s38_38) (forall ((X_101 Int) (X_102 Int)) (=> (and (tptp.mem0 X_101 tptp.g_s38_38) (forall ((X_103 Int)) (=> (tptp.mem0 X_103 tptp.g_s38_38) (<= X_101 X_103))) (tptp.mem0 X_102 tptp.g_s38_38) (forall ((X_104 Int)) (=> (tptp.mem0 X_104 tptp.g_s38_38) (>= X_102 X_104)))) (and (>= X_100 X_101) (<= X_100 X_102)))))))
(assert (and (forall ((X_7 Int)) (= (tptp.mem0 X_7 tptp.g_s8_8) (or (= X_7 tptp.g_s9_9) (= X_7 tptp.g_s10_10) (= X_7 tptp.g_s11_11)))) (not (= tptp.g_s9_9 tptp.g_s10_10)) (not (= tptp.g_s10_10 tptp.g_s11_11))))
(assert (not (forall ((X_105 Int)) (=> (= X_105 tptp.max_int) (tptp.mem0 X_105 tptp.g_s38_38)))))
(assert (forall ((X_106 Int)) (=> (tptp.mem0 X_106 tptp.g_s39_39) (and (>= X_106 0) (<= X_106 tptp.max_int)))))
(assert (not (forall ((X_107 Int)) (= (tptp.mem0 X_107 tptp.g_s39_39) false))))
(assert (forall ((X_108 Int)) (= (tptp.mem0 X_108 tptp.g_s39_39) (forall ((X_109 Int) (X_110 Int)) (=> (and (tptp.mem0 X_109 tptp.g_s39_39) (forall ((X_111 Int)) (=> (tptp.mem0 X_111 tptp.g_s39_39) (<= X_109 X_111))) (tptp.mem0 X_110 tptp.g_s39_39) (forall ((X_112 Int)) (=> (tptp.mem0 X_112 tptp.g_s39_39) (>= X_110 X_112)))) (and (>= X_108 X_109) (<= X_108 X_110)))))))
(assert (not (forall ((X_113 Int)) (=> (= X_113 tptp.max_int) (tptp.mem0 X_113 tptp.g_s39_39)))))
(assert (forall ((X_114 Int)) (=> (tptp.mem0 X_114 tptp.g_s40_40) (tptp.mem0 X_114 tptp.g_s29_29))))
(assert (tptp.mem0 tptp.g_s41_41 tptp.g_s29_29))
(assert (not (tptp.mem0 tptp.g_s41_41 tptp.g_s40_40)))
(assert (and (forall ((X_115 Int) (X_116 Int)) (=> (tptp.mem2 X_116 X_115 tptp.g_s42_42) (and (>= X_116 0) (<= X_116 tptp.max_int) (tptp.mem0 X_115 tptp.g_s29_29)))) (forall ((X_117 Int) (X_118 Int) (X_119 Int)) (=> (and (tptp.mem2 X_117 X_118 tptp.g_s42_42) (tptp.mem2 X_117 X_119 tptp.g_s42_42)) (= X_118 X_119)))))
(assert (exists ((X_120 Int)) (and (exists ((X_121 tptp.set_2)) (and (forall ((X_122 Int) (X_123 Int)) (= (tptp.mem2 X_123 X_122 X_121) (tptp.mem2 X_123 X_122 tptp.g_s42_42))) (forall ((X_124 Int) (X_125 Int) (X_126 Int)) (=> (and (tptp.mem2 X_124 X_125 X_121) (tptp.mem2 X_124 X_126 X_121)) (= X_125 X_126))) (forall ((X_127 Int)) (= (and (>= X_127 1) (<= X_127 X_120)) (exists ((X_128 Int)) (tptp.mem2 X_127 X_128 X_121)))) (forall ((X_129 Int)) (=> (exists ((X_130 Int)) (tptp.mem2 X_130 X_129 X_121)) (tptp.mem0 X_129 tptp.g_s40_40))))) (forall ((X_131 Int)) (=> (tptp.mem0 X_131 tptp.g_s40_40) (exists ((X_132 Int)) (tptp.mem2 X_132 X_131 tptp.g_s42_42)))) (forall ((X_133 Int) (X_134 Int) (X_135 Int)) (=> (and (tptp.mem2 X_134 X_133 tptp.g_s42_42) (tptp.mem2 X_135 X_133 tptp.g_s42_42)) (= X_134 X_135))))))
(assert (and (forall ((X_8 Int)) (= (tptp.mem0 X_8 tptp.g_s12_12) (or (= X_8 tptp.g_s13_13) (= X_8 tptp.g_s14_14)))) (not (= tptp.g_s13_13 tptp.g_s14_14))))
(assert (forall ((X_136 Int)) (=> (tptp.mem0 X_136 tptp.g_s43_43) (tptp.mem0 X_136 tptp.g_s0_0))))
(assert (not (tptp.mem0 tptp.g_s1_1 tptp.g_s43_43)))
(assert (forall ((X_137 Int)) (= (tptp.mem0 X_137 tptp.g_s43_43) (or (= X_137 tptp.g_s2_2) (= X_137 tptp.g_s3_3)))))
(assert (and (exists ((X_138 tptp.set_2)) (and (forall ((X_139 Int) (X_140 Int)) (= (tptp.mem2 X_140 X_139 X_138) (tptp.mem2 X_140 X_139 tptp.g_s44_44))) (forall ((X_141 Int) (X_142 Int) (X_143 Int)) (=> (and (tptp.mem2 X_141 X_142 X_138) (tptp.mem2 X_141 X_143 X_138)) (= X_142 X_143))) (forall ((X_144 Int)) (= (tptp.mem0 X_144 tptp.g_s43_43) (exists ((X_145 Int)) (tptp.mem2 X_144 X_145 X_138)))) (forall ((X_146 Int)) (=> (exists ((X_147 Int)) (tptp.mem2 X_147 X_146 X_138)) (tptp.mem0 X_146 tptp.g_s43_43))))) (forall ((X_148 Int)) (=> (tptp.mem0 X_148 tptp.g_s43_43) (exists ((X_149 Int)) (tptp.mem2 X_149 X_148 tptp.g_s44_44)))) (forall ((X_150 Int) (X_151 Int) (X_152 Int)) (=> (and (tptp.mem2 X_151 X_150 tptp.g_s44_44) (tptp.mem2 X_152 X_150 tptp.g_s44_44)) (= X_151 X_152)))))
(assert (forall ((X_153 Int) (X_154 Int)) (= (and (tptp.mem2 X_154 X_153 tptp.g_s44_44) (= X_154 X_153) (tptp.mem0 X_154 tptp.g_s43_43)) false)))
(assert (and (exists ((X_155 tptp.set_2)) (and (forall ((X_156 Int) (X_157 Int)) (= (tptp.mem2 X_157 X_156 X_155) (tptp.mem2 X_157 X_156 tptp.g_s45_45))) (forall ((X_158 Int) (X_159 Int) (X_160 Int)) (=> (and (tptp.mem2 X_158 X_159 X_155) (tptp.mem2 X_158 X_160 X_155)) (= X_159 X_160))) (forall ((X_161 Int)) (= (tptp.mem0 X_161 tptp.g_s46_46) (exists ((X_162 Int)) (tptp.mem2 X_161 X_162 X_155)))) (forall ((X_163 Int)) (=> (exists ((X_164 Int)) (tptp.mem2 X_164 X_163 X_155)) (tptp.mem0 X_163 tptp.g_s0_0))))) (forall ((X_165 Int)) (=> (tptp.mem0 X_165 tptp.g_s0_0) (exists ((X_166 Int)) (tptp.mem2 X_166 X_165 tptp.g_s45_45)))) (forall ((X_167 Int) (X_168 Int) (X_169 Int)) (=> (and (tptp.mem2 X_168 X_167 tptp.g_s45_45) (tptp.mem2 X_169 X_167 tptp.g_s45_45)) (= X_168 X_169)))))
(assert (not (forall ((X_170 Int)) (=> (tptp.mem2 tptp.g_s47_47 X_170 tptp.g_s45_45) (tptp.mem0 X_170 tptp.g_s43_43)))))
(assert (and (exists ((X_171 tptp.set_2)) (and (forall ((X_172 Int) (X_173 Int)) (= (tptp.mem2 X_173 X_172 X_171) (tptp.mem2 X_173 X_172 tptp.g_s48_48))) (forall ((X_174 Int) (X_175 Int) (X_176 Int)) (=> (and (tptp.mem2 X_174 X_175 X_171) (tptp.mem2 X_174 X_176 X_171)) (= X_175 X_176))) (forall ((X_177 Int)) (= (tptp.mem0 X_177 tptp.g_s49_49) (exists ((X_178 Int)) (tptp.mem2 X_177 X_178 X_171)))) (forall ((X_179 Int)) (=> (exists ((X_180 Int)) (tptp.mem2 X_180 X_179 X_171)) (tptp.mem0 X_179 tptp.g_s0_0))))) (forall ((X_181 Int)) (=> (tptp.mem0 X_181 tptp.g_s0_0) (exists ((X_182 Int)) (tptp.mem2 X_182 X_181 tptp.g_s48_48)))) (forall ((X_183 Int) (X_184 Int) (X_185 Int)) (=> (and (tptp.mem2 X_184 X_183 tptp.g_s48_48) (tptp.mem2 X_185 X_183 tptp.g_s48_48)) (= X_184 X_185)))))
(assert (and (exists ((X_186 tptp.set_2)) (and (forall ((X_187 Int) (X_188 Int)) (= (tptp.mem2 X_188 X_187 X_186) (tptp.mem2 X_188 X_187 tptp.g_s50_50))) (forall ((X_189 Int) (X_190 Int) (X_191 Int)) (=> (and (tptp.mem2 X_189 X_190 X_186) (tptp.mem2 X_189 X_191 X_186)) (= X_190 X_191))) (forall ((X_192 Int)) (= (tptp.mem0 X_192 tptp.g_s0_0) (exists ((X_193 Int)) (tptp.mem2 X_192 X_193 X_186)))) (forall ((X_194 Int)) (=> (exists ((X_195 Int)) (tptp.mem2 X_195 X_194 X_186)) (tptp.mem0 X_194 tptp.g_s49_49))))) (forall ((X_196 Int)) (=> (tptp.mem0 X_196 tptp.g_s49_49) (exists ((X_197 Int)) (tptp.mem2 X_197 X_196 tptp.g_s50_50)))) (forall ((X_198 Int) (X_199 Int) (X_200 Int)) (=> (and (tptp.mem2 X_199 X_198 tptp.g_s50_50) (tptp.mem2 X_200 X_198 tptp.g_s50_50)) (= X_199 X_200)))))
(assert (forall ((X_201 Int) (X_202 Int)) (= (tptp.mem2 X_202 X_201 tptp.g_s48_48) (tptp.mem2 X_201 X_202 tptp.g_s50_50))))
(assert (and (forall ((X_9 Int)) (= (tptp.mem0 X_9 tptp.g_s15_15) (or (= X_9 tptp.g_s16_16) (= X_9 tptp.g_s17_17)))) (not (= tptp.g_s16_16 tptp.g_s17_17))))
(assert (not (forall ((X_203 Int)) (=> (tptp.mem2 tptp.g_s51_51 X_203 tptp.g_s48_48) (tptp.mem0 X_203 tptp.g_s43_43)))))
(assert (forall ((X_204 Int)) (=> (tptp.mem0 X_204 tptp.g_s52_52) (tptp.mem0 X_204 tptp.g_s34_34))))
(assert (tptp.mem0 tptp.g_s53_53 tptp.g_s34_34))
(assert (not (tptp.mem0 tptp.g_s53_53 tptp.g_s52_52)))
(assert (and (forall ((X_205 Int) (X_206 Int)) (=> (tptp.mem2 X_206 X_205 tptp.g_s54_54) (and (>= X_206 0) (<= X_206 tptp.max_int) (tptp.mem0 X_205 tptp.g_s34_34)))) (forall ((X_207 Int) (X_208 Int) (X_209 Int)) (=> (and (tptp.mem2 X_207 X_208 tptp.g_s54_54) (tptp.mem2 X_207 X_209 tptp.g_s54_54)) (= X_208 X_209)))))
(assert (exists ((X_210 Int)) (and (exists ((X_211 tptp.set_2)) (and (forall ((X_212 Int) (X_213 Int)) (= (tptp.mem2 X_213 X_212 X_211) (tptp.mem2 X_213 X_212 tptp.g_s54_54))) (forall ((X_214 Int) (X_215 Int) (X_216 Int)) (=> (and (tptp.mem2 X_214 X_215 X_211) (tptp.mem2 X_214 X_216 X_211)) (= X_215 X_216))) (forall ((X_217 Int)) (= (and (>= X_217 1) (<= X_217 X_210)) (exists ((X_218 Int)) (tptp.mem2 X_217 X_218 X_211)))) (forall ((X_219 Int)) (=> (exists ((X_220 Int)) (tptp.mem2 X_220 X_219 X_211)) (tptp.mem0 X_219 tptp.g_s52_52))))) (forall ((X_221 Int)) (=> (tptp.mem0 X_221 tptp.g_s52_52) (exists ((X_222 Int)) (tptp.mem2 X_222 X_221 tptp.g_s54_54)))) (forall ((X_223 Int) (X_224 Int) (X_225 Int)) (=> (and (tptp.mem2 X_224 X_223 tptp.g_s54_54) (tptp.mem2 X_225 X_223 tptp.g_s54_54)) (= X_224 X_225))))))
(assert (forall ((X_226 Int)) (=> (tptp.mem0 X_226 tptp.g_s55_55) (tptp.mem0 X_226 tptp.g_s35_35))))
(assert (tptp.mem0 tptp.g_s56_56 tptp.g_s35_35))
(assert (not (tptp.mem0 tptp.g_s56_56 tptp.g_s55_55)))
(assert (and (forall ((X_227 Int) (X_228 Int)) (=> (tptp.mem2 X_228 X_227 tptp.g_s57_57) (and (>= X_228 0) (<= X_228 tptp.max_int) (tptp.mem0 X_227 tptp.g_s35_35)))) (forall ((X_229 Int) (X_230 Int) (X_231 Int)) (=> (and (tptp.mem2 X_229 X_230 tptp.g_s57_57) (tptp.mem2 X_229 X_231 tptp.g_s57_57)) (= X_230 X_231)))))
(assert (and (forall ((X_10 Int)) (= (tptp.mem0 X_10 tptp.g_s18_18) (or (= X_10 tptp.g_s19_19) (= X_10 tptp.g_s20_20) (= X_10 tptp.g_s21_21)))) (not (= tptp.g_s19_19 tptp.g_s20_20)) (not (= tptp.g_s20_20 tptp.g_s21_21))))
(assert (exists ((X_232 Int)) (and (exists ((X_233 tptp.set_2)) (and (forall ((X_234 Int) (X_235 Int)) (= (tptp.mem2 X_235 X_234 X_233) (tptp.mem2 X_235 X_234 tptp.g_s57_57))) (forall ((X_236 Int) (X_237 Int) (X_238 Int)) (=> (and (tptp.mem2 X_236 X_237 X_233) (tptp.mem2 X_236 X_238 X_233)) (= X_237 X_238))) (forall ((X_239 Int)) (= (and (>= X_239 1) (<= X_239 X_232)) (exists ((X_240 Int)) (tptp.mem2 X_239 X_240 X_233)))) (forall ((X_241 Int)) (=> (exists ((X_242 Int)) (tptp.mem2 X_242 X_241 X_233)) (tptp.mem0 X_241 tptp.g_s55_55))))) (forall ((X_243 Int)) (=> (tptp.mem0 X_243 tptp.g_s55_55) (exists ((X_244 Int)) (tptp.mem2 X_244 X_243 tptp.g_s57_57)))) (forall ((X_245 Int) (X_246 Int) (X_247 Int)) (=> (and (tptp.mem2 X_246 X_245 tptp.g_s57_57) (tptp.mem2 X_247 X_245 tptp.g_s57_57)) (= X_246 X_247))))))
(assert (forall ((X_248 Int)) (=> (tptp.mem0 X_248 tptp.g_s58_58) (tptp.mem0 X_248 tptp.g_s36_36))))
(assert (tptp.mem0 tptp.g_s59_59 tptp.g_s36_36))
(assert (not (tptp.mem0 tptp.g_s59_59 tptp.g_s58_58)))
(assert (and (forall ((X_249 Int) (X_250 Int)) (=> (tptp.mem2 X_250 X_249 tptp.g_s60_60) (and (>= X_250 0) (<= X_250 tptp.max_int) (tptp.mem0 X_249 tptp.g_s36_36)))) (forall ((X_251 Int) (X_252 Int) (X_253 Int)) (=> (and (tptp.mem2 X_251 X_252 tptp.g_s60_60) (tptp.mem2 X_251 X_253 tptp.g_s60_60)) (= X_252 X_253)))))
(assert (exists ((X_254 Int)) (and (exists ((X_255 tptp.set_2)) (and (forall ((X_256 Int) (X_257 Int)) (= (tptp.mem2 X_257 X_256 X_255) (tptp.mem2 X_257 X_256 tptp.g_s60_60))) (forall ((X_258 Int) (X_259 Int) (X_260 Int)) (=> (and (tptp.mem2 X_258 X_259 X_255) (tptp.mem2 X_258 X_260 X_255)) (= X_259 X_260))) (forall ((X_261 Int)) (= (and (>= X_261 1) (<= X_261 X_254)) (exists ((X_262 Int)) (tptp.mem2 X_261 X_262 X_255)))) (forall ((X_263 Int)) (=> (exists ((X_264 Int)) (tptp.mem2 X_264 X_263 X_255)) (tptp.mem0 X_263 tptp.g_s58_58))))) (forall ((X_265 Int)) (=> (tptp.mem0 X_265 tptp.g_s58_58) (exists ((X_266 Int)) (tptp.mem2 X_266 X_265 tptp.g_s60_60)))) (forall ((X_267 Int) (X_268 Int) (X_269 Int)) (=> (and (tptp.mem2 X_268 X_267 tptp.g_s60_60) (tptp.mem2 X_269 X_267 tptp.g_s60_60)) (= X_268 X_269))))))
(assert (and (forall ((X_11 Int)) (= (tptp.mem0 X_11 tptp.g_s22_22) (or (= X_11 tptp.g_s23_23) (= X_11 tptp.g_s24_24)))) (not (= tptp.g_s23_23 tptp.g_s24_24))))
(assert (and (forall ((X_12 Int)) (= (tptp.mem0 X_12 tptp.g_s25_25) (or (= X_12 tptp.g_s26_26) (= X_12 tptp.g_s27_27) (= X_12 tptp.g_s28_28)))) (not (= tptp.g_s26_26 tptp.g_s27_27)) (not (= tptp.g_s27_27 tptp.g_s28_28))))
(assert (and (not (forall ((X_13 Int)) (= (tptp.mem0 X_13 tptp.g_s29_29) false))) (forall ((X_16 Int)) (=> (tptp.mem0 X_16 tptp.g_s29_29) true)) (exists ((X_14 Int) (X_15 tptp.set_2)) (and (exists ((X_17 tptp.set_2)) (and (forall ((X_18 Int) (X_19 Int)) (= (tptp.mem2 X_19 X_18 X_17) (tptp.mem2 X_19 X_18 X_15))) (forall ((X_20 Int) (X_21 Int) (X_22 Int)) (=> (and (tptp.mem2 X_20 X_21 X_17) (tptp.mem2 X_20 X_22 X_17)) (= X_21 X_22))) (forall ((X_23 Int)) (= (and (>= X_23 1) (<= X_23 X_14)) (exists ((X_24 Int)) (tptp.mem2 X_23 X_24 X_17)))) (forall ((X_25 Int)) (=> (exists ((X_26 Int)) (tptp.mem2 X_26 X_25 X_17)) (tptp.mem0 X_25 tptp.g_s29_29))))) (forall ((X_27 Int)) (=> (tptp.mem0 X_27 tptp.g_s29_29) (exists ((X_28 Int)) (tptp.mem2 X_28 X_27 X_15)))) (forall ((X_29 Int) (X_30 Int) (X_31 Int)) (=> (and (tptp.mem2 X_30 X_29 X_15) (tptp.mem2 X_31 X_29 X_15)) (= X_30 X_31)))))))
(assert (and (forall ((X_32 Int)) (= (tptp.mem0 X_32 tptp.g_s30_30) (or (= X_32 tptp.g_s31_31) (= X_32 tptp.g_s32_32) (= X_32 tptp.g_s33_33)))) (not (= tptp.g_s31_31 tptp.g_s32_32)) (not (= tptp.g_s32_32 tptp.g_s33_33))))
(assert (forall ((X_599 Int)) (=> (exists ((X_600 Int)) (and (tptp.mem0 X_600 tptp.g_s55_55) (tptp.mem2 X_599 X_600 tptp.g_s80_66))) (tptp.mem0 X_599 tptp.g_s37_37))))
(assert (forall ((X_601 Int)) (=> (exists ((X_602 Int)) (and (tptp.mem0 X_602 tptp.g_s55_55) (tptp.mem2 X_601 X_602 tptp.g_s80_66))) (>= X_601 0))))
(assert (forall ((X_582 Int) (X_583 Int) (X_584 Int)) (= (tptp.mem3 X_584 X_583 X_582 tptp.g_s61_72) (and (tptp.mem3 X_584 X_583 X_582 tptp.g_s75_61) (tptp.mem0 X_584 tptp.g_s40_40) (tptp.mem0 X_583 tptp.g_s43_43) (tptp.mem0 X_582 tptp.g_s52_52)))))
(assert (forall ((X_585 Int) (X_586 Int)) (= (tptp.mem2 X_586 X_585 tptp.g_s62_73) (and (tptp.mem2 X_586 X_585 tptp.g_s76_67) (tptp.mem0 X_586 tptp.g_s40_40) (tptp.mem0 X_585 tptp.g_s58_58)))))
(assert (forall ((X_587 tptp.set_0) (X_588 Int)) (= (tptp.mem4 X_588 X_587 tptp.g_s64_75) (and (tptp.mem0 X_588 tptp.g_s40_40) (forall ((X_589 Int)) (= (tptp.mem0 X_589 X_587) (forall ((X_590 Int) (X_591 Int)) (=> (and (tptp.mem2 X_588 X_590 tptp.g_s78_64) (tptp.mem2 X_588 X_591 tptp.g_s79_65)) (and (>= X_589 X_590) (<= X_589 X_591))))))))))
(assert (forall ((X_592 Int) (X_593 Int)) (= (tptp.mem2 X_593 X_592 tptp.g_s65_76) (and (tptp.mem2 X_593 X_592 tptp.g_s80_66) (tptp.mem0 X_592 tptp.g_s55_55)))))
(assert (forall ((X_594 Int) (X_595 Int)) (= (tptp.mem2 X_595 X_594 tptp.g_s63_74) (and (tptp.mem0 X_595 tptp.g_s40_40) (tptp.mem0 X_594 tptp.g_s55_55) (exists ((X_596 Int)) (and (forall ((X_597 Int) (X_598 Int)) (=> (and (tptp.mem2 X_595 X_597 tptp.g_s78_64) (tptp.mem2 X_595 X_598 tptp.g_s79_65)) (and (>= X_596 X_597) (<= X_596 X_598)))) (tptp.mem2 X_596 X_594 tptp.g_s80_66)))))))
(assert (exists ((X_270 tptp.set_3)) (and (forall ((X_271 Int) (X_272 Int) (X_273 Int)) (= (tptp.mem3 X_273 X_272 X_271 X_270) (tptp.mem3 X_273 X_272 X_271 tptp.g_s75_61))) (forall ((X_274 Int) (X_275 Int) (X_276 Int) (X_277 Int)) (=> (and (tptp.mem3 X_275 X_274 X_276 X_270) (tptp.mem3 X_275 X_274 X_277 X_270)) (= X_276 X_277))) (forall ((X_278 Int) (X_279 Int)) (= (and (tptp.mem0 X_279 tptp.g_s29_29) (tptp.mem0 X_278 tptp.g_s0_0)) (exists ((X_280 Int)) (tptp.mem3 X_279 X_278 X_280 X_270)))) (forall ((X_281 Int)) (=> (exists ((X_282 Int) (X_283 Int)) (tptp.mem3 X_283 X_282 X_281 X_270)) (tptp.mem0 X_281 tptp.g_s34_34))))))
(assert (exists ((X_284 tptp.set_3)) (and (forall ((X_285 Int) (X_286 Int) (X_287 Int)) (= (tptp.mem3 X_287 X_286 X_285 X_284) (tptp.mem3 X_287 X_286 X_285 tptp.g_s82_62))) (forall ((X_288 Int) (X_289 Int) (X_290 Int) (X_291 Int)) (=> (and (tptp.mem3 X_289 X_288 X_290 X_284) (tptp.mem3 X_289 X_288 X_291 X_284)) (= X_290 X_291))) (forall ((X_292 Int) (X_293 Int)) (= (and (tptp.mem0 X_293 tptp.g_s29_29) (tptp.mem0 X_292 tptp.g_s0_0)) (exists ((X_294 Int)) (tptp.mem3 X_293 X_292 X_294 X_284)))) (forall ((X_295 Int)) (=> (exists ((X_296 Int) (X_297 Int)) (tptp.mem3 X_297 X_296 X_295 X_284)) (tptp.mem0 X_295 tptp.g_s83_63))))))
(assert (forall ((L_s77 Int)) (=> (tptp.mem0 L_s77 tptp.g_s40_40) (and (forall ((X_368 Int) (X_369 Int)) (let ((_let_1 (tptp.mem0 X_369 tptp.g_s55_55))) (=> (and (tptp.mem2 X_368 X_369 tptp.g_s80_66) _let_1 (forall ((X_370 Int) (X_371 Int)) (=> (and (tptp.mem2 L_s77 X_370 tptp.g_s78_64) (tptp.mem2 L_s77 X_371 tptp.g_s79_65)) (and (>= X_368 X_370) (<= X_368 X_371))))) (and _let_1 (>= X_368 0))))) (forall ((X_372 Int) (X_373 Int) (X_374 Int)) (let ((_let_1 (tptp.mem0 X_372 tptp.g_s55_55))) (=> (and (tptp.mem2 X_373 X_372 tptp.g_s80_66) _let_1 (forall ((X_375 Int) (X_376 Int)) (=> (and (tptp.mem2 L_s77 X_375 tptp.g_s78_64) (tptp.mem2 L_s77 X_376 tptp.g_s79_65)) (and (>= X_373 X_375) (<= X_373 X_376)))) (tptp.mem2 X_374 X_372 tptp.g_s80_66) _let_1 (forall ((X_377 Int) (X_378 Int)) (=> (and (tptp.mem2 L_s77 X_377 tptp.g_s78_64) (tptp.mem2 L_s77 X_378 tptp.g_s79_65)) (and (>= X_374 X_377) (<= X_374 X_378))))) (= X_373 X_374))))))))
(assert (exists ((X_298 tptp.set_2)) (and (forall ((X_299 Int) (X_300 Int)) (= (tptp.mem2 X_300 X_299 X_298) (tptp.mem2 X_300 X_299 tptp.g_s78_64))) (forall ((X_301 Int) (X_302 Int) (X_303 Int)) (=> (and (tptp.mem2 X_301 X_302 X_298) (tptp.mem2 X_301 X_303 X_298)) (= X_302 X_303))) (forall ((X_304 Int)) (= (tptp.mem0 X_304 tptp.g_s29_29) (exists ((X_305 Int)) (tptp.mem2 X_304 X_305 X_298)))) (forall ((X_306 Int)) (=> (exists ((X_307 Int)) (tptp.mem2 X_307 X_306 X_298)) (tptp.mem0 X_306 tptp.g_s37_37))))))
(assert (exists ((X_308 tptp.set_2)) (and (forall ((X_309 Int) (X_310 Int)) (= (tptp.mem2 X_310 X_309 X_308) (tptp.mem2 X_310 X_309 tptp.g_s79_65))) (forall ((X_311 Int) (X_312 Int) (X_313 Int)) (=> (and (tptp.mem2 X_311 X_312 X_308) (tptp.mem2 X_311 X_313 X_308)) (= X_312 X_313))) (forall ((X_314 Int)) (= (tptp.mem0 X_314 tptp.g_s29_29) (exists ((X_315 Int)) (tptp.mem2 X_314 X_315 X_308)))) (forall ((X_316 Int)) (=> (exists ((X_317 Int)) (tptp.mem2 X_317 X_316 X_308)) (tptp.mem0 X_316 tptp.g_s37_37))))))
(assert (exists ((X_318 tptp.set_2)) (and (forall ((X_319 Int) (X_320 Int)) (= (tptp.mem2 X_320 X_319 X_318) (tptp.mem2 X_320 X_319 tptp.g_s80_66))) (forall ((X_321 Int) (X_322 Int) (X_323 Int)) (=> (and (tptp.mem2 X_321 X_322 X_318) (tptp.mem2 X_321 X_323 X_318)) (= X_322 X_323))) (forall ((X_324 Int)) (= (tptp.mem0 X_324 tptp.g_s37_37) (exists ((X_325 Int)) (tptp.mem2 X_324 X_325 X_318)))) (forall ((X_326 Int)) (=> (exists ((X_327 Int)) (tptp.mem2 X_327 X_326 X_318)) (tptp.mem0 X_326 tptp.g_s35_35))))))
(assert (exists ((X_328 tptp.set_2)) (and (forall ((X_329 Int) (X_330 Int)) (= (tptp.mem2 X_330 X_329 X_328) (tptp.mem2 X_330 X_329 tptp.g_s76_67))) (forall ((X_331 Int) (X_332 Int) (X_333 Int)) (=> (and (tptp.mem2 X_331 X_332 X_328) (tptp.mem2 X_331 X_333 X_328)) (= X_332 X_333))) (forall ((X_334 Int)) (= (tptp.mem0 X_334 tptp.g_s29_29) (exists ((X_335 Int)) (tptp.mem2 X_334 X_335 X_328)))) (forall ((X_336 Int)) (=> (exists ((X_337 Int)) (tptp.mem2 X_337 X_336 X_328)) (tptp.mem0 X_336 tptp.g_s36_36))))))
(assert (exists ((X_338 tptp.set_3)) (and (forall ((X_339 Int) (X_340 Int) (X_341 Int)) (= (tptp.mem3 X_341 X_340 X_339 X_338) (tptp.mem3 X_341 X_340 X_339 tptp.g_s84_68))) (forall ((X_342 Int) (X_343 Int) (X_344 Int) (X_345 Int)) (=> (and (tptp.mem3 X_343 X_342 X_344 X_338) (tptp.mem3 X_343 X_342 X_345 X_338)) (= X_344 X_345))) (forall ((X_346 Int) (X_347 Int)) (= (and (tptp.mem0 X_347 tptp.g_s29_29) (tptp.mem0 X_346 tptp.g_s0_0)) (exists ((X_348 Int)) (tptp.mem3 X_347 X_346 X_348 X_338)))) (forall ((X_349 Int)) (=> (exists ((X_350 Int) (X_351 Int)) (tptp.mem3 X_351 X_350 X_349 X_338)) (tptp.mem0 X_349 tptp.g_s25_25))))))
(assert (exists ((X_352 Int) (X_353 tptp.set_2)) (and (forall ((X_354 Int) (X_355 Int)) (= (tptp.mem2 X_355 X_354 X_353) (and (tptp.mem2 X_355 X_354 tptp.g_s80_66) (tptp.mem0 X_354 tptp.g_s55_55)))) (forall ((X_356 Int) (X_357 Int) (X_358 Int)) (=> (and (tptp.mem2 X_356 X_357 X_353) (tptp.mem2 X_356 X_358 X_353)) (= X_357 X_358))) (forall ((X_359 Int)) (= (and (>= X_359 1) (<= X_359 X_352)) (exists ((X_360 Int)) (tptp.mem2 X_359 X_360 X_353)))) (forall ((X_361 Int)) (=> (exists ((X_362 Int)) (tptp.mem2 X_362 X_361 X_353)) (tptp.mem0 X_361 tptp.g_s55_55))))))
(assert (forall ((L_s77 Int) (L_s81 Int)) (=> (and (tptp.mem0 L_s77 tptp.g_s40_40) true (forall ((X_363 Int)) (=> (tptp.mem2 L_s77 X_363 tptp.g_s78_64) (<= X_363 L_s81))) (forall ((X_364 Int)) (=> (tptp.mem2 L_s77 X_364 tptp.g_s79_65) (<= L_s81 X_364)))) (tptp.mem0 L_s81 tptp.g_s37_37))))
(assert (forall ((L_s77 Int) (L_s81 Int)) (=> (and (tptp.mem0 L_s77 tptp.g_s40_40) true (forall ((X_365 Int)) (=> (tptp.mem2 L_s77 X_365 tptp.g_s78_64) (<= X_365 L_s81))) (forall ((X_366 Int)) (=> (tptp.mem2 L_s77 X_366 tptp.g_s79_65) (<= L_s81 X_366)))) (forall ((X_367 Int)) (=> (tptp.mem2 L_s81 X_367 tptp.g_s80_66) (tptp.mem0 X_367 tptp.g_s55_55))))))
(assert true)
(assert (and (>= tptp.g_s68_1_77 0) (<= tptp.g_s68_1_77 tptp.max_int)))
(assert (and (>= tptp.g_s69_1_78 0) (<= tptp.g_s69_1_78 tptp.max_int)))
(assert (tptp.mem0 tptp.g_s70_1_79 tptp.g_s35_35))
(assert (tptp.mem0 tptp.g_s71_1_80 tptp.g_s35_35))
(assert true)
(assert true)
(assert true)
(assert (forall ((X_603 Int)) (let ((_let_1 (>= X_603 0))) (=> (and _let_1 (<= X_603 tptp.max_int)) _let_1))))
(assert (forall ((X_604 Int)) (=> (tptp.mem0 X_604 tptp.g_s37_37) (>= X_604 0))))
(assert (forall ((X_605 Int)) (=> (tptp.mem0 X_605 tptp.g_s38_38) (>= X_605 0))))
(assert (forall ((X_606 Int)) (=> (tptp.mem0 X_606 tptp.g_s39_39) (>= X_606 0))))
(assert (tptp.mem0 tptp.g_s90_81 tptp.g_s29_29))
(assert (tptp.mem0 tptp.g_s90_81 tptp.g_s40_40))
(assert (not (forall ((X_651 tptp.set_0)) (=> (forall ((X_652 Int)) (= (tptp.mem0 X_652 X_651) false)) (tptp.mem4 tptp.g_s90_81 X_651 tptp.g_s64_75)))))
(assert (not (forall ((X_653 Int) (X_654 Int)) (=> (and (tptp.mem2 tptp.g_s90_81 X_653 tptp.g_s78_64) (tptp.mem2 tptp.g_s90_81 X_654 tptp.g_s79_65)) (<= X_653 X_654)))))
(check-sat)
(exit)
